benchmarks/bfuzz0/89234462504221407310521448398026607.smt2
(set-logic QF_FP)
(declare-const x0 (_ FloatingPoint 11 53))
(declare-const x1 (_ FloatingPoint 11 53))
(declare-const x2 (_ FloatingPoint 11 53))
(declare-const x3 (_ FloatingPoint 11 53))
(declare-const x4 (_ FloatingPoint 11 53))
(declare-const x5 (_ FloatingPoint 11 53))
(declare-const x6 (_ FloatingPoint 11 53))
(declare-const x7 (_ FloatingPoint 11 53))
(declare-const x8 (_ FloatingPoint 11 53))
(declare-const x9 (_ FloatingPoint 11 53))
(declare-const x10 (_ FloatingPoint 11 53))
(assert (fp.lt (fp.neg (fp.add RNE (fp.neg x6) (fp.sub RNE x5 x7))) (fp.sub RNE (fp.neg (fp.sub RNE x8 x9)) (fp.mul RNE (fp.neg x3) (fp.neg x10)))))
(assert (fp.gt (fp.sub RNE (fp.neg (fp.add RNE x8 x5)) (fp.neg (fp.sub RNE x10 x1))) (fp.add RNE (fp.mul RNE (fp.div RNE x6 x3) (fp.neg x7)) (fp.add RNE (fp.mul RNE x1 x2) (fp.mul RNE x1 x2)))))
(check-sat)
