db/data/89234462504221407310521448398026607.z3.out
sat
-------------------
62.347232541
